commons/LK_FILES/TIC53-20-20-4.tsp
NAME: TIC53-20-20-4
TYPE: TSP
COMMENT: TSP
DIMENSION: 9
EDGE_WEIGHT_TYPE: EXPLICIT
EDGE_WEIGHT_FORMAT: FULL_MATRIX
EDGE_WEIGHT_SECTION
0 494 472 192 80 81 142 359 377 
494 0 352 293 74 159 491 97 129 
472 352 0 262 242 271 488 249 382 
192 293 262 0 101 256 259 465 249 
80 74 242 101 0 393 290 317 204 
81 159 271 256 393 0 202 143 490 
142 491 488 259 290 202 0 162 257 
359 97 249 465 317 143 162 0 211 
377 129 382 249 204 490 257 211 0 
EOF
