commons/LK_FILES/TIC53-20-20-4.tour
NAME : TIC53-20-20-4.1590.tour
COMMENT : Length = 1590
COMMENT : Found by LKH [Keld Helsgaun] Tue Nov 22 15:13:51 2016
TYPE : TOUR
DIMENSION : 6
TOUR_SECTION
1
2
3
5
6
4
-1
EOF
